results/res_prop_muc/res_Cimatti_mathsat_cores/QF_UF/PEQ019_size5.smt.smt2.out

real	0m0.350s
user	0m0.261s
sys	0m0.011s
