results/res_prop_muc/res_Cimatti_mathsat_cores/QF_UF/PEQ019_size5.smt.smt2.res
unsat
( _c0
  _c1
  _c10
  _c101
  _c102
  _c103
  _c104
  _c105
  _c106
  _c107
  _c108
  _c109
  _c11
  _c110
  _c111
  _c112
  _c113
  _c114
  _c115
  _c116
  _c117
  _c118
  _c119
  _c12
  _c120
  _c121
  _c122
  _c123
  _c124
  _c125
  _c126
  _c127
  _c128
  _c129
  _c13
  _c130
  _c131
  _c132
  _c133
  _c134
  _c135
  _c136
  _c137
  _c138
  _c139
  _c14
  _c140
  _c141
  _c142
  _c143
  _c144
  _c145
  _c146
  _c147
  _c148
  _c149
  _c15
  _c150
  _c151
  _c152
  _c153
  _c154
  _c155
  _c156
  _c157
  _c158
  _c159
  _c16
  _c160
  _c161
  _c162
  _c163
  _c164
  _c165
  _c166
  _c167
  _c168
  _c169
  _c17
  _c170
  _c171
  _c172
  _c173
  _c174
  _c175
  _c176
  _c177
  _c178
  _c179
  _c18
  _c180
  _c181
  _c182
  _c183
  _c184
  _c185
  _c186
  _c187
  _c188
  _c189
  _c19
  _c190
  _c191
  _c192
  _c193
  _c194
  _c195
  _c196
  _c197
  _c198
  _c199
  _c20
  _c200
  _c201
  _c202
  _c203
  _c204
  _c205
  _c206
  _c207
  _c208
  _c209
  _c210
  _c211
  _c212
  _c213
  _c214
  _c215
  _c216
  _c217
  _c218
  _c219
  _c220
  _c221
  _c222
  _c223
  _c224
  _c225
  _c226
  _c227
  _c228
  _c229
  _c230
  _c231
  _c232
  _c233
  _c234
  _c235
  _c236
  _c237
  _c238
  _c239
  _c240
  _c241
  _c242
  _c243
  _c244
  _c245
  _c246
  _c247
  _c249
  _c250
  _c251
  _c252
  _c253
  _c255
  _c256
  _c26
  _c262
  _c264
  _c265
  _c27
  _c272
  _c274
  _c275
  _c28
  _c29
  _c3
  _c300
  _c301
  _c302
  _c305
  _c307
  _c308
  _c309
  _c31
  _c312
  _c313
  _c314
  _c315
  _c317
  _c318
  _c319
  _c322
  _c323
  _c324
  _c325
  _c33
  _c332
  _c333
  _c334
  _c335
  _c336
  _c347
  _c348
  _c349
  _c35
  _c350
  _c351
  _c352
  _c354
  _c355
  _c358
  _c36
  _c360
  _c361
  _c362
  _c363
  _c364
  _c365
  _c366
  _c368
  _c369
  _c370
  _c371
  _c372
  _c373
  _c374
  _c375
  _c376
  _c377
  _c378
  _c379
  _c38
  _c380
  _c381
  _c382
  _c39
  _c4
  _c40
  _c5
  _c51
  _c53
  _c55
  _c57
  _c58
  _c59
  _c60
  _c7
  _c76
  _c78
  _c80
  _c9 )
